outputs/uuf50-0102/n26_n24.proof
8 26 -29 -40 0
-31 1 -29 38 26 0
38 45 46 18 24 31 0
1 -46 38 -9 0
-29 38 -8 18 -40 24 26 0
-29 38 -18 24 26 0
-29 38 18 -40 24 26 0
38 8 16 -13 -10 0
-29 38 8 9 -10 -39 31 0
-29 38 8 40 18 0
-31 26 -29 38 0
-29 -27 38 9 44 45 -46 -8 0
24 26 38 0
40 24 -38 0
8 48 26 -40 0
-38 -18 -8 24 26 0
-8 9 -38 36 0
0
