outputs/uuf50-0102/n26_n24.res
%RESA32 50 218

219 -31 185 92 4 9 26 27 -29 4
220 -27 212 219 5 -29 8 9 -40 26 5
221 -9 101 220 4 -40 8 26 -29 4
222 -46 133 11 4 -31 2 11 -9 4
223 -2 213 222 4 -31 11 15 -9 4
224 -11 172 223 5 -31 38 15 -16 -9 5
225 -15 71 224 5 -31 38 -16 48 -9 5
226 16 129 225 5 -31 1 38 48 -9 5
227 -48 38 226 5 -31 1 -29 38 -9 5
228 9 185 227 5 -31 1 -29 38 26 5
229 -12 157 120 4 -19 20 45 6 4
230 19 94 229 5 6 45 -16 20 -43 5
231 16 99 230 6 3 38 6 45 20 -43 6
232 -20 30 231 6 3 38 6 45 -43 31 6
233 -6 98 232 6 3 38 45 46 -43 31 6
234 -3 200 233 7 38 45 46 -43 24 -37 31 7
235 37 9 234 7 38 45 46 18 -43 24 31 7
236 43 27 235 6 38 45 46 18 24 31 6
237 16 129 172 4 1 -11 38 -9 4
238 11 133 237 4 1 -46 38 -9 4
239 35 13 62 4 32 -46 -6 38 4
240 -32 145 239 5 -27 38 10 -46 -6 5
241 -10 108 240 6 2 -27 38 44 -46 -6 6
242 6 157 241 7 2 -27 38 44 45 -46 -12 7
243 -2 165 242 8 -27 38 9 44 45 -46 -12 -8 8
244 12 136 243 8 36 -27 38 9 44 45 -46 -8 8
245 -9 238 244 8 1 36 -27 38 44 45 -46 -8 8
246 46 236 245 10 1 36 -27 38 44 45 18 -8 24 31 10
247 -45 128 246 9 1 36 -27 38 44 18 -8 24 31 9
248 27 92 247 9 1 -29 36 38 44 18 -8 24 31 9
249 -44 90 248 8 1 -29 36 38 18 -8 24 31 8
250 -31 228 249 8 1 -29 36 38 18 -8 24 26 8
251 -1 143 250 8 -29 36 38 18 -8 24 26 30 8
252 -30 177 251 7 -29 36 38 18 -8 24 26 7
253 -36 16 252 7 -29 38 -8 18 -40 24 26 7
254 -30 177 143 3 -29 36 -1 3
255 1 228 254 5 -31 -29 36 38 26 5
256 31 92 255 5 -29 36 38 26 27 5
257 -36 34 256 5 -29 38 -37 26 27 5
258 -27 107 257 6 -29 38 -18 -49 26 -37 6
259 49 211 258 6 -29 38 -18 24 26 -37 6
260 37 82 259 5 -29 38 -18 24 26 5
261 8 221 253 6 -29 38 18 -40 24 26 6
262 -49 54 123 4 8 -13 -36 -3 4
263 3 99 262 5 38 8 16 -13 -36 5
264 36 23 263 5 38 8 16 -13 -10 5
265 43 73 94 4 -16 19 6 -10 4
266 -19 5 265 5 38 6 15 -16 -10 5
267 -6 13 266 5 35 38 15 -16 -10 5
268 -15 69 267 6 -30 35 38 44 -16 -10 6
269 30 122 268 7 35 38 44 45 -16 -10 -39 7
270 -35 78 269 7 38 -22 44 45 -16 -10 -39 7
271 -45 128 270 7 38 -22 44 -16 -10 -39 31 7
272 22 199 271 7 38 8 44 -16 -10 -39 31 7
273 -44 12 272 8 38 8 9 11 -16 -10 -39 31 8
274 -11 172 273 7 38 8 9 -16 -10 -39 31 7
275 16 264 274 7 38 8 9 -13 -10 -39 31 7
276 13 67 275 7 -29 38 8 9 -10 -39 31 7
277 -42 102 139 4 18 35 28 21 4
278 -28 64 277 4 -27 18 35 21 4
279 -35 169 278 5 -30 -27 18 -44 21 5
280 -21 162 279 6 2 -30 -27 8 18 -44 6
281 44 108 280 6 -30 2 -27 8 18 -10 6
282 30 61 281 7 2 -27 8 40 12 18 -10 7
283 -2 213 282 8 -27 8 40 12 15 18 -10 -9 8
284 -12 140 283 8 -27 8 40 15 48 18 -10 -9 8
285 -15 71 284 7 -27 8 40 48 18 -10 -9 7
286 -48 38 285 7 -29 -27 8 40 18 -10 -9 7
287 9 276 286 9 -29 -27 38 8 40 18 -10 -39 31 9
288 10 145 287 9 -32 -29 -27 38 8 40 18 -39 31 9
289 32 49 288 8 -29 -27 38 8 40 18 -39 31 8
290 39 57 289 7 -29 -27 38 8 40 18 31 7
291 27 92 290 6 -29 38 8 40 18 31 6
292 -31 29 291 5 -29 38 8 40 18 5
293 30 143 160 3 48 -29 -1 3
294 -48 38 293 3 -29 -1 -9 3
295 9 185 294 4 -31 26 -29 -1 4
296 1 228 295 4 -31 26 -29 38 4
297 -49 70 123 4 -13 -36 -3 47 4
298 36 136 297 5 9 12 47 -13 -3 5
299 -47 109 298 5 9 10 12 -13 -3 5
300 -12 157 299 6 6 9 10 45 -13 -3 6
301 3 99 300 7 38 6 9 10 45 16 -13 7
302 -6 13 301 7 35 38 9 10 45 16 -13 7
303 -16 191 302 7 32 35 38 9 10 45 -13 7
304 -35 62 303 7 32 38 9 10 45 -46 -13 7
305 -32 145 304 7 -27 38 9 10 45 -46 -13 7
306 -10 108 305 8 2 -27 38 9 44 45 -46 -13 8
307 -2 165 306 8 -27 38 9 44 45 -46 -13 -8 8
308 13 67 307 8 -29 -27 38 9 44 45 -46 -8 8
309 -30 160 61 4 40 48 12 -1 4
310 -12 20 309 5 40 48 -11 25 -1 5
311 1 238 310 7 38 40 48 -46 -11 -9 25 7
312 -25 44 311 7 38 40 48 -46 -11 -9 31 7
313 11 133 312 6 38 40 48 -46 -9 31 6
314 -48 38 313 6 -29 38 40 -46 -9 31 6
315 9 308 314 9 -29 -27 38 40 44 45 -46 -8 31 9
316 46 236 315 10 -29 -27 38 40 44 45 18 -8 24 31 10
317 -45 128 316 9 -29 -27 38 40 44 18 -8 24 31 9
318 27 92 317 8 -29 38 40 44 18 -8 24 31 8
319 -44 90 318 7 -29 38 40 18 -8 24 31 7
320 -31 296 319 7 -29 38 40 18 -8 24 26 7
321 8 292 320 6 -29 38 40 18 24 26 6
322 -40 261 321 5 -29 38 18 24 26 5
323 -18 260 322 4 24 26 -29 38 4
324 29 36 323 3 24 26 38 3
325 -18 211 7 3 24 49 -47 3
326 -49 196 325 3 24 -47 40 3
327 47 76 326 3 40 24 -38 3
328 -15 88 140 3 48 27 -12 3
329 12 136 328 4 48 9 27 36 4
330 -36 16 329 5 9 48 18 -40 27 5
331 -18 24 330 6 9 48 -40 26 27 29 6
332 -29 221 331 6 8 9 48 -40 26 27 6
333 -27 212 332 5 8 9 48 -40 26 5
334 -9 101 333 4 48 8 26 -40 4
335 34 47 112 4 33 -37 -4 22 4
336 -33 180 335 5 11 -18 22 -37 -4 5
337 -22 125 336 5 -31 11 -18 -37 -4 5
338 4 151 337 6 -31 -37 11 -18 23 27 6
339 37 135 338 7 -31 -25 11 -18 23 -38 27 7
340 31 92 339 7 -29 -25 11 -18 23 -38 27 7
341 -11 208 340 7 -29 -25 -18 23 -8 -38 27 7
342 -23 50 341 6 -29 -25 -18 -8 -38 27 6
343 25 186 342 6 -29 -18 -49 -8 -38 27 6
344 -27 107 343 5 -29 -18 -49 -8 -38 5
345 49 211 344 5 -29 -18 -8 24 -38 5
346 29 24 345 5 -38 -18 -8 24 26 5
347 -13 19 67 4 9 -38 -29 -12 4
348 29 126 347 5 2 36 9 -12 -38 5
349 -2 165 348 5 36 9 -12 -8 -38 5
350 12 136 349 4 -8 9 -38 36 4
